language Essence 1.3

letting class be function(1 --> 2, 2 --> 1, 3 --> 1, 4 --> 2, 5 --> 1, 6 --> 1, 7 --> 1, 8 --> 1)
letting deck_length be 78
letting deck_width be 78
letting length be function(1 --> 53, 2 --> 5, 3 --> 8, 4 --> 16, 5 --> 8, 6 --> 1, 7 --> 2, 8 --> 3)
letting n_classes be 2
letting n_containers be 8
letting separation be function({1, 2} --> 64)
letting width be function(1 --> 61, 2 --> 24, 3 --> 14, 4 --> 56, 5 --> 34, 6 --> 44, 7 --> 60, 8 --> 3)
